
se = 40; % nombre de sessions
gr = 20; % nombre de grups de treball
cl = 7; % nombre de slots
minPapersPerSlot = 3; % minim nombre d'articles per sessio i slot
maxSesionsPar = 14; % maxim nombre de sessions paraleles

npMax = [4, 4, 3, 3, 3, 5, 6]; % nombre maxim de papers per slot

np = [9, 3, 3, 10, 3, 3, 14, 3, 4, 14, 13, 3, 7, 14, 14, 8, 3, 4, 14, 3, 4, 8, 3, 5, 5, 13, 3, 3, 11, 11, 3, 8, 7, 3, 7, 5, 4, 9, 3, 10]; % nombre de papers acceptats a cada sessio

WG = [ {1}, {2,3}, {}, {4}, {5}, {6}, {}, {7,8}, {}, {}, {}, {9}, {}, {10,11}, {12,13}, {14,15}, {}, {16}, {}, {17}, {18}, {19}, {}, {}, {20,1,2}, {3}, {4,5}, {6}, {}, {7}, {8}, {}, {}, {9,10}, {11}, {12}, {13}, {14}, {15}, {16} ]; % grups per sessio

